Route #1: 13 54 19 35 8
Route #2: 34 52 46
Route #3: 7 53 14
Route #4: 11 38
Route #5: 10 31 39
Route #6: 9 40
Route #7: 26 12 17 51
Route #8: 3 44 32 25
Route #9: 50 18 24 49
Route #10: 16 1 33
Route #11: 2 30
Route #12: 4 45 27
Route #13: 29 15 5 48
Route #14: 20 37 36 47
Route #15: 21 28 22
Route #16: 23 43 41 42 6
Cost 979